1
1000
120
499 1
495 1
495 1
493 1
488 1
488 1
477 1
476 1
473 1
469 1
466 1
461 1
460 1
458 1
457 1
455 1
453 1
444 1
438 1
428 1
424 1
421 1
418 1
418 1
417 1
410 1
408 1
408 1
407 1
400 1
398 1
395 1
393 1
391 1
385 1
373 1
370 1
369 1
366 1
355 1
348 1
346 1
340 1
339 1
338 1
334 1
329 1
327 1
327 1
323 1
323 1
318 1
317 1
317 1
314 1
313 1
312 1
309 1
308 1
306 1
304 1
304 1
300 1
300 1
298 1
297 1
295 1
295 1
292 1
292 1
290 1
287 1
286 1
286 1
286 1
284 1
282 1
282 1
282 1
280 1
278 1
276 1
275 1
274 1
272 1
268 1
268 1
268 1
267 1
267 1
265 1
264 1
264 1
262 1
262 1
261 1
259 1
259 1
259 1
259 1
258 1
258 1
256 1
256 1
256 1
255 1
255 1
255 1
254 1
254 1
253 1
252 1
251 1
251 1
250 1
250 1
250 1
250 1
250 1
250 1
